
  32    1
  10

   0   0   2 2 4 
   2   1   3 8 5 3 
   6   2   3 13 9 7 
   4   3   4 14 13 10 9 
   8   2   1 6 
   8   1   4 14 13 11 10 
   4   1   3 14 11 10 
   5   1   3 14 12 10 
   1   3   3 18 15 11 
   8   1   4 18 17 16 15 
   1   3   2 16 12 
   1   1   4 24 23 20 17 
   3   5   3 20 19 16 
   6   2   4 24 23 20 19 
   2   1   3 23 20 19 
   3   3   6 31 26 24 23 22 21 
   6   4   2 22 19 
   2   2   1 19 
   2   2   4 31 26 25 21 
   3   1   2 22 21 
   2   3   4 30 29 28 27 
   7   1   3 30 29 28 
   7   3   3 29 28 27 
   7   3   1 25 
   2   2   2 28 27 
   3   2   1 27 
   4   1   1 32
  10   1   1 32
   5   1   1 32
   2   2   1 32
   5   2   1 32
   0   0   0 
